(set-logic ALL)
(set-option :produce-models true)
(declare-sort BoundSet 0)
(declare-sort UnboundSet 0)
(set-option :finite-model-find true)
(declare-fun IsSmall (BoundSet) Bool)
(declare-fun IsOnLawn (BoundSet) Bool)
(declare-fun IsRunning (BoundSet) Bool)
(declare-fun IsOnTree (BoundSet) Bool)
(assert (not (=> (exists ((a BoundSet)) (exists ((b BoundSet)) (and (IsSmall a) (IsOnLawn b)))) (exists ((c BoundSet)) (exists ((d BoundSet)) (and (IsRunning c) (IsOnTree d)))))))
(check-sat)
(get-model)